examples/dynamic/debug6/MulliganEconomicsModel0085c.smt2
(set-info :smt-lib-version 2.6)
(set-logic QF_NRA)
(set-info :source |
Generated by: Casey Mulligan, Russell Bradford, James H. Davenport, Matthew England, and ZakTonks
Generated on: 2018-04-19
Generator: TheoryGuru
Application: Vector mode: Correlation between wealth and marginal utility, counterexample set
Target solver: Z3
|)
(set-info :license "https://creativecommons.org/licenses/by/4.0/")
(set-info :category "industrial")
(set-info :status unsat)

; Code written by TheoryGuru
; Mulligan model #0085
;   is part of the example library included in "Quantifier Elimination for Reasoning in Economics" April 2018
;   by Mulligan, Bradford, Davenport, England, and Tonks
;   available at bathpaper.economicreasoning.com .
; Economics background for this and other examples is provided at examples.economicreasoning.com .

(declare-fun v1 () Real)
(declare-fun v2 () Real)
(declare-fun v3 () Real)
(declare-fun v4 () Real)
(declare-fun v5 () Real)
(declare-fun v6 () Real)
(declare-fun v7 () Real)
(declare-fun v8 () Real)

; input assumptions
(define-fun assumptions () Bool (and 
(= v7 v5)
(= v5 (* v2 v3))
(> (* v3 v5) 0)
(= v4 (* v1 v3))
(> (* v3 v4) (* v3 v3))
(>= v6 0)
(>= v8 0)
(>= (* v6 v8) (* v7 v7))
(>= v3 1)
(>= (* v3 v6) (* v4 v4))
(>= (* v3 v8) (* v5 v5))
))

; input hypothesis
(define-fun hypothesis () Bool
(< (+ (* v1 v2 v3) v7) (+ (* v2 v4) (* v1 v5)))
)

(assert assumptions)
(assert (not hypothesis))

(check-sat) ; checking the existence of a counterexample to assumptions => hypothesis

(exit)