z3_origin/MulliganEconomicsModel0085c.txt
unsat
(:max-memory          18.42
 :memory              18.33
 :nlsat-arith-var     7
 :nlsat-atoms         20
 :nlsat-bool-var      3
 :nlsat-clauses       13
 :nlsat-conflicts     5
 :nlsat-propagations  13
 :nlsat-stages        6
 :num-allocs          51113
 :rlimit-count        1767
 :solve-eqs-elim-vars 5
 :solve-eqs-steps     9
 :time                0.00
 :total-time          0.01)
